p edge 150 2235
e 1 6
e 1 17
e 1 24
e 1 31
e 1 32
e 1 34
e 1 45
e 1 46
e 1 48
e 1 53
e 1 65
e 1 69
e 1 70
e 1 73
e 1 78
e 1 88
e 1 97
e 1 106
e 1 107
e 1 108
e 1 122
e 1 127
e 1 138
e 1 140
e 1 142
e 1 147
e 1 149
e 1 150
e 2 11
e 2 21
e 2 26
e 2 32
e 2 33
e 2 34
e 2 38
e 2 40
e 2 42
e 2 52
e 2 69
e 2 73
e 2 91
e 2 100
e 2 101
e 2 105
e 2 110
e 2 119
e 2 123
e 2 125
e 2 127
e 2 131
e 2 136
e 2 139
e 3 8
e 3 13
e 3 14
e 3 17
e 3 19
e 3 23
e 3 41
e 3 43
e 3 51
e 3 59
e 3 60
e 3 61
e 3 63
e 3 65
e 3 70
e 3 74
e 3 77
e 3 88
e 3 92
e 3 96
e 3 99
e 3 102
e 3 104
e 3 107
e 3 109
e 3 111
e 3 112
e 3 113
e 3 121
e 3 125
e 3 130
e 3 134
e 3 138
e 3 140
e 3 142
e 4 11
e 4 12
e 4 18
e 4 22
e 4 28
e 4 29
e 4 33
e 4 36
e 4 45
e 4 46
e 4 62
e 4 64
e 4 67
e 4 69
e 4 72
e 4 74
e 4 76
e 4 85
e 4 87
e 4 90
e 4 96
e 4 98
e 4 103
e 4 104
e 4 108
e 4 120
e 4 121
e 4 137
e 4 149
e 5 8
e 5 14
e 5 16
e 5 19
e 5 22
e 5 27
e 5 32
e 5 44
e 5 54
e 5 58
e 5 62
e 5 63
e 5 65
e 5 66
e 5 69
e 5 75
e 5 81
e 5 86
e 5 87
e 5 92
e 5 93
e 5 111
e 5 113
e 5 122
e 5 126
e 5 132
e 5 133
e 5 135
e 5 137
e 5 145
e 6 7
e 6 10
e 6 11
e 6 13
e 6 28
e 6 35
e 6 38
e 6 39
e 6 50
e 6 57
e 6 58
e 6 61
e 6 69
e 6 71
e 6 78
e 6 87
e 6 89
e 6 90
e 6 96
e 6 103
e 6 108
e 6 121
e 6 122
e 6 130
e 6 136
e 6 139
e 6 140
e 6 142
e 6 145
e 6 150
e 7 13
e 7 22
e 7 23
e 7 33
e 7 42
e 7 51
e 7 53
e 7 70
e 7 73
e 7 75
e 7 80
e 7 86
e 7 92
e 7 107
e 7 119
e 7 134
e 7 141
e 8 17
e 8 26
e 8 29
e 8 34
e 8 36
e 8 39
e 8 43
e 8 48
e 8 49
e 8 50
e 8 53
e 8 60
e 8 70
e 8 73
e 8 74
e 8 79
e 8 89
e 8 92
e 8 95
e 8 98
e 8 101
e 8 108
e 8 111
e 8 112
e 8 118
e 8 122
e 8 127
e 8 128
e 8 131
e 8 132
e 8 135
e 8 142
e 9 13
e 9 30
e 9 36
e 9 42
e 9 46
e 9 49
e 9 50
e 9 51
e 9 56
e 9 59
e 9 62
e 9 63
e 9 69
e 9 75
e 9 79
e 9 82
e 9 90
e 9 91
e 9 93
e 9 99
e 9 112
e 9 123
e 9 134
e 9 141
e 9 143
e 9 144
e 9 150
e 10 11
e 10 18
e 10 19
e 10 24
e 10 35
e 10 36
e 10 52
e 10 53
e 10 74
e 10 76
e 10 83
e 10 84
e 10 86
e 10 87
e 10 98
e 10 101
e 10 103
e 10 109
e 10 125
e 10 136
e 10 138
e 10 140
e 10 141
e 10 142
e 11 20
e 11 21
e 11 31
e 11 39
e 11 40
e 11 45
e 11 51
e 11 58
e 11 65
e 11 66
e 11 69
e 11 71
e 11 75
e 11 87
e 11 91
e 11 92
e 11 97
e 11 99
e 11 103
e 11 112
e 11 121
e 11 138
e 11 143
e 11 144
e 11 145
e 11 146
e 11 147
e 11 150
e 12 14
e 12 15
e 12 17
e 12 20
e 12 25
e 12 26
e 12 27
e 12 28
e 12 40
e 12 41
e 12 51
e 12 52
e 12 60
e 12 64
e 12 65
e 12 66
e 12 77
e 12 79
e 12 83
e 12 85
e 12 90
e 12 91
e 12 101
e 12 107
e 12 114
e 12 115
e 12 135
e 12 136
e 12 138
e 12 140
e 12 144
e 12 146
e 12 147
e 13 16
e 13 19
e 13 26
e 13 28
e 13 31
e 13 34
e 13 45
e 13 63
e 13 64
e 13 71
e 13 74
e 13 83
e 13 102
e 13 103
e 13 108
e 13 109
e 13 121
e 13 124
e 13 131
e 13 146
e 14 23
e 14 25
e 14 27
e 14 33
e 14 36
e 14 46
e 14 47
e 14 49
e 14 58
e 14 63
e 14 64
e 14 65
e 14 72
e 14 74
e 14 93
e 14 98
e 14 103
e 14 107
e 14 108
e 14 110
e 14 119
e 14 120
e 14 122
e 14 123
e 14 125
e 14 130
e 14 138
e 14 141
e 14 149
e 15 29
e 15 32
e 15 36
e 15 38
e 15 43
e 15 46
e 15 62
e 15 63
e 15 66
e 15 69
e 15 71
e 15 73
e 15 79
e 15 82
e 15 83
e 15 86
e 15 88
e 15 100
e 15 104
e 15 110
e 15 111
e 15 115
e 15 116
e 15 120
e 15 122
e 15 127
e 15 130
e 15 143
e 16 21
e 16 26
e 16 30
e 16 49
e 16 52
e 16 60
e 16 63
e 16 70
e 16 74
e 16 75
e 16 81
e 16 85
e 16 90
e 16 95
e 16 103
e 16 104
e 16 109
e 16 111
e 16 112
e 16 116
e 16 126
e 16 136
e 16 138
e 16 150
e 17 21
e 17 22
e 17 26
e 17 31
e 17 44
e 17 46
e 17 48
e 17 50
e 17 53
e 17 63
e 17 65
e 17 68
e 17 79
e 17 80
e 17 83
e 17 90
e 17 104
e 17 108
e 17 123
e 17 138
e 17 150
e 18 23
e 18 24
e 18 28
e 18 33
e 18 34
e 18 38
e 18 42
e 18 44
e 18 55
e 18 64
e 18 65
e 18 74
e 18 83
e 18 86
e 18 91
e 18 92
e 18 100
e 18 110
e 18 119
e 18 124
e 18 128
e 18 130
e 18 133
e 18 136
e 18 141
e 18 148
e 18 150
e 19 20
e 19 21
e 19 27
e 19 28
e 19 31
e 19 41
e 19 49
e 19 52
e 19 53
e 19 66
e 19 82
e 19 84
e 19 85
e 19 90
e 19 109
e 19 110
e 19 119
e 19 121
e 19 124
e 19 150
e 20 29
e 20 34
e 20 36
e 20 37
e 20 40
e 20 45
e 20 58
e 20 61
e 20 65
e 20 68
e 20 71
e 20 72
e 20 73
e 20 77
e 20 81
e 20 91
e 20 94
e 20 102
e 20 103
e 20 106
e 20 107
e 20 112
e 20 117
e 20 118
e 20 119
e 20 124
e 20 127
e 20 128
e 20 137
e 20 140
e 20 141
e 20 144
e 21 23
e 21 27
e 21 29
e 21 30
e 21 35
e 21 38
e 21 39
e 21 51
e 21 52
e 21 66
e 21 68
e 21 70
e 21 74
e 21 82
e 21 90
e 21 96
e 21 101
e 21 105
e 21 107
e 21 109
e 21 110
e 21 116
e 21 120
e 21 123
e 21 127
e 21 129
e 21 134
e 21 138
e 21 148
e 21 149
e 22 29
e 22 31
e 22 34
e 22 36
e 22 40
e 22 46
e 22 47
e 22 60
e 22 66
e 22 67
e 22 74
e 22 90
e 22 91
e 22 94
e 22 96
e 22 103
e 22 107
e 22 117
e 22 120
e 22 122
e 22 131
e 22 138
e 22 140
e 22 141
e 22 142
e 22 146
e 23 28
e 23 33
e 23 36
e 23 38
e 23 39
e 23 51
e 23 62
e 23 63
e 23 67
e 23 78
e 23 80
e 23 94
e 23 95
e 23 98
e 23 99
e 23 103
e 23 104
e 23 113
e 23 115
e 23 117
e 23 121
e 23 122
e 23 132
e 23 133
e 23 138
e 23 150
e 24 25
e 24 28
e 24 29
e 24 33
e 24 36
e 24 41
e 24 43
e 24 47
e 24 51
e 24 52
e 24 57
e 24 60
e 24 68
e 24 74
e 24 79
e 24 81
e 24 83
e 24 87
e 24 88
e 24 99
e 24 100
e 24 103
e 24 106
e 24 110
e 24 118
e 24 125
e 24 132
e 24 138
e 24 139
e 24 140
e 24 141
e 25 36
e 25 39
e 25 51
e 25 54
e 25 55
e 25 58
e 25 69
e 25 70
e 25 76
e 25 85
e 25 86
e 25 89
e 25 91
e 25 102
e 25 105
e 25 110
e 25 114
e 25 118
e 25 120
e 25 122
e 25 127
e 25 130
e 25 134
e 25 136
e 25 145
e 25 147
e 26 49
e 26 51
e 26 57
e 26 58
e 26 65
e 26 66
e 26 69
e 26 73
e 26 75
e 26 77
e 26 80
e 26 81
e 26 85
e 26 90
e 26 94
e 26 95
e 26 106
e 26 107
e 26 109
e 26 114
e 26 121
e 26 122
e 26 123
e 26 124
e 26 126
e 26 127
e 26 131
e 26 132
e 26 134
e 26 139
e 27 34
e 27 37
e 27 40
e 27 41
e 27 42
e 27 43
e 27 48
e 27 54
e 27 55
e 27 57
e 27 63
e 27 70
e 27 73
e 27 76
e 27 79
e 27 82
e 27 90
e 27 95
e 27 100
e 27 103
e 27 105
e 27 108
e 27 112
e 27 121
e 27 124
e 27 127
e 27 128
e 27 136
e 27 142
e 27 148
e 28 31
e 28 33
e 28 35
e 28 44
e 28 55
e 28 59
e 28 73
e 28 75
e 28 81
e 28 82
e 28 88
e 28 90
e 28 103
e 28 121
e 28 124
e 28 126
e 28 128
e 28 134
e 28 136
e 28 140
e 28 142
e 28 143
e 28 147
e 29 31
e 29 33
e 29 36
e 29 38
e 29 47
e 29 49
e 29 61
e 29 64
e 29 76
e 29 78
e 29 80
e 29 82
e 29 88
e 29 89
e 29 95
e 29 130
e 29 137
e 29 138
e 29 139
e 29 142
e 29 144
e 29 148
e 30 31
e 30 51
e 30 53
e 30 55
e 30 62
e 30 68
e 30 70
e 30 74
e 30 76
e 30 97
e 30 99
e 30 100
e 30 101
e 30 103
e 30 105
e 30 111
e 30 115
e 30 116
e 30 117
e 30 124
e 30 134
e 30 145
e 31 34
e 31 40
e 31 47
e 31 49
e 31 61
e 31 62
e 31 65
e 31 66
e 31 68
e 31 85
e 31 91
e 31 92
e 31 97
e 31 102
e 31 107
e 31 110
e 31 113
e 31 115
e 31 122
e 31 127
e 31 129
e 31 135
e 31 142
e 31 145
e 31 147
e 32 36
e 32 39
e 32 41
e 32 42
e 32 43
e 32 49
e 32 50
e 32 56
e 32 66
e 32 68
e 32 71
e 32 75
e 32 82
e 32 89
e 32 93
e 32 94
e 32 100
e 32 102
e 32 106
e 32 107
e 32 109
e 32 111
e 32 117
e 32 119
e 32 121
e 32 128
e 32 133
e 32 146
e 32 149
e 33 43
e 33 44
e 33 45
e 33 47
e 33 54
e 33 58
e 33 60
e 33 69
e 33 74
e 33 76
e 33 82
e 33 87
e 33 92
e 33 97
e 33 98
e 33 100
e 33 101
e 33 110
e 33 112
e 33 118
e 33 129
e 33 130
e 33 131
e 33 133
e 33 139
e 33 142
e 34 36
e 34 39
e 34 41
e 34 46
e 34 47
e 34 51
e 34 54
e 34 55
e 34 56
e 34 61
e 34 62
e 34 67
e 34 71
e 34 81
e 34 83
e 34 86
e 34 91
e 34 96
e 34 97
e 34 99
e 34 100
e 34 103
e 34 104
e 34 106
e 34 107
e 34 108
e 34 109
e 34 110
e 34 112
e 34 120
e 34 122
e 34 135
e 34 139
e 34 140
e 34 143
e 34 145
e 35 38
e 35 39
e 35 52
e 35 55
e 35 59
e 35 63
e 35 68
e 35 71
e 35 72
e 35 74
e 35 76
e 35 83
e 35 84
e 35 93
e 35 102
e 35 105
e 35 111
e 35 117
e 35 125
e 35 126
e 35 128
e 35 137
e 35 145
e 36 46
e 36 47
e 36 52
e 36 53
e 36 54
e 36 57
e 36 65
e 36 73
e 36 74
e 36 75
e 36 76
e 36 81
e 36 82
e 36 101
e 36 105
e 36 107
e 36 113
e 36 114
e 36 115
e 36 117
e 36 118
e 36 121
e 36 123
e 36 131
e 36 134
e 36 138
e 36 140
e 36 142
e 36 143
e 37 38
e 37 43
e 37 51
e 37 63
e 37 64
e 37 68
e 37 70
e 37 71
e 37 72
e 37 73
e 37 75
e 37 79
e 37 83
e 37 84
e 37 86
e 37 90
e 37 91
e 37 98
e 37 105
e 37 106
e 37 113
e 37 114
e 37 119
e 37 124
e 37 134
e 37 136
e 37 137
e 37 149
e 38 45
e 38 49
e 38 51
e 38 54
e 38 60
e 38 62
e 38 64
e 38 67
e 38 69
e 38 79
e 38 87
e 38 88
e 38 96
e 38 100
e 38 105
e 38 109
e 38 110
e 38 115
e 38 121
e 38 142
e 38 149
e 38 150
e 39 40
e 39 53
e 39 57
e 39 58
e 39 61
e 39 63
e 39 67
e 39 76
e 39 79
e 39 84
e 39 91
e 39 101
e 39 107
e 39 108
e 39 114
e 39 120
e 39 131
e 39 132
e 39 134
e 39 137
e 39 148
e 40 52
e 40 69
e 40 72
e 40 75
e 40 76
e 40 78
e 40 92
e 40 93
e 40 97
e 40 99
e 40 100
e 40 101
e 40 102
e 40 104
e 40 105
e 40 117
e 40 118
e 40 119
e 40 122
e 40 124
e 40 127
e 40 129
e 40 131
e 40 135
e 40 137
e 40 148
e 41 43
e 41 44
e 41 51
e 41 61
e 41 66
e 41 68
e 41 69
e 41 74
e 41 81
e 41 85
e 41 88
e 41 94
e 41 97
e 41 98
e 41 101
e 41 115
e 41 117
e 41 126
e 41 128
e 41 134
e 42 45
e 42 54
e 42 56
e 42 57
e 42 59
e 42 66
e 42 72
e 42 83
e 42 84
e 42 94
e 42 96
e 42 100
e 42 102
e 42 116
e 42 122
e 42 127
e 42 143
e 42 148
e 43 49
e 43 53
e 43 65
e 43 70
e 43 72
e 43 76
e 43 77
e 43 81
e 43 85
e 43 86
e 43 89
e 43 91
e 43 98
e 43 99
e 43 107
e 43 109
e 43 111
e 43 115
e 43 116
e 43 117
e 43 142
e 43 149
e 44 52
e 44 58
e 44 59
e 44 60
e 44 69
e 44 74
e 44 77
e 44 78
e 44 83
e 44 88
e 44 110
e 44 116
e 44 117
e 44 122
e 44 123
e 44 131
e 44 134
e 44 138
e 44 139
e 44 140
e 44 145
e 44 150
e 45 46
e 45 51
e 45 55
e 45 63
e 45 64
e 45 67
e 45 73
e 45 75
e 45 80
e 45 83
e 45 86
e 45 93
e 45 94
e 45 97
e 45 99
e 45 100
e 45 108
e 45 110
e 45 114
e 45 116
e 45 119
e 45 121
e 45 127
e 45 128
e 45 133
e 45 145
e 45 150
e 46 47
e 46 51
e 46 57
e 46 60
e 46 68
e 46 72
e 46 77
e 46 81
e 46 86
e 46 95
e 46 96
e 46 102
e 46 104
e 46 109
e 46 111
e 46 121
e 46 126
e 46 127
e 46 128
e 46 142
e 47 51
e 47 55
e 47 56
e 47 62
e 47 65
e 47 66
e 47 69
e 47 83
e 47 93
e 47 94
e 47 100
e 47 113
e 47 119
e 47 121
e 47 138
e 47 142
e 47 143
e 47 150
e 48 52
e 48 54
e 48 69
e 48 71
e 48 76
e 48 93
e 48 102
e 48 103
e 48 110
e 48 111
e 48 112
e 48 113
e 48 116
e 48 117
e 48 124
e 48 125
e 48 132
e 48 134
e 48 139
e 48 140
e 48 143
e 48 144
e 48 145
e 48 149
e 49 65
e 49 66
e 49 70
e 49 78
e 49 79
e 49 86
e 49 88
e 49 92
e 49 104
e 49 108
e 49 116
e 49 142
e 50 52
e 50 56
e 50 84
e 50 88
e 50 93
e 50 102
e 50 109
e 50 111
e 50 113
e 50 115
e 50 116
e 50 120
e 50 125
e 50 126
e 50 129
e 50 131
e 50 134
e 50 137
e 50 138
e 50 139
e 51 54
e 51 59
e 51 65
e 51 92
e 51 97
e 51 109
e 51 114
e 51 115
e 51 116
e 51 123
e 51 130
e 51 131
e 51 132
e 51 135
e 51 136
e 51 142
e 51 144
e 51 150
e 52 55
e 52 60
e 52 64
e 52 65
e 52 66
e 52 74
e 52 76
e 52 80
e 52 83
e 52 96
e 52 102
e 52 108
e 52 111
e 52 114
e 52 128
e 52 130
e 52 131
e 52 136
e 52 148
e 53 76
e 53 83
e 53 84
e 53 90
e 53 97
e 53 103
e 53 105
e 53 107
e 53 109
e 53 111
e 53 118
e 53 130
e 53 133
e 53 138
e 53 140
e 53 142
e 53 143
e 54 68
e 54 70
e 54 74
e 54 88
e 54 89
e 54 101
e 54 103
e 54 108
e 54 109
e 54 110
e 54 112
e 54 118
e 54 123
e 54 130
e 54 132
e 54 139
e 54 146
e 54 147
e 55 56
e 55 64
e 55 67
e 55 72
e 55 82
e 55 89
e 55 90
e 55 96
e 55 100
e 55 111
e 55 112
e 55 113
e 55 118
e 55 121
e 55 126
e 55 127
e 55 129
e 55 135
e 55 136
e 55 137
e 55 138
e 55 139
e 55 150
e 56 61
e 56 64
e 56 73
e 56 76
e 56 85
e 56 90
e 56 93
e 56 94
e 56 96
e 56 98
e 56 99
e 56 101
e 56 102
e 56 105
e 56 108
e 56 121
e 56 122
e 56 129
e 56 131
e 56 147
e 56 148
e 57 63
e 57 68
e 57 72
e 57 78
e 57 80
e 57 81
e 57 85
e 57 96
e 57 97
e 57 100
e 57 101
e 57 111
e 57 118
e 57 119
e 57 122
e 57 126
e 57 130
e 57 136
e 57 140
e 57 144
e 57 146
e 57 149
e 58 65
e 58 68
e 58 75
e 58 76
e 58 90
e 58 94
e 58 96
e 58 98
e 58 107
e 58 108
e 58 110
e 58 112
e 58 115
e 58 122
e 58 124
e 58 133
e 58 134
e 58 142
e 58 144
e 59 60
e 59 64
e 59 69
e 59 74
e 59 79
e 59 81
e 59 84
e 59 88
e 59 92
e 59 102
e 59 108
e 59 109
e 59 110
e 59 111
e 59 116
e 59 124
e 59 132
e 59 138
e 60 69
e 60 71
e 60 75
e 60 77
e 60 87
e 60 96
e 60 109
e 60 110
e 60 115
e 60 125
e 60 130
e 60 136
e 61 63
e 61 69
e 61 72
e 61 77
e 61 86
e 61 87
e 61 89
e 61 96
e 61 98
e 61 103
e 61 109
e 61 110
e 61 119
e 61 123
e 61 125
e 61 131
e 61 138
e 61 143
e 61 146
e 62 63
e 62 65
e 62 68
e 62 72
e 62 73
e 62 76
e 62 82
e 62 93
e 62 105
e 62 108
e 62 109
e 62 113
e 62 117
e 62 119
e 62 130
e 62 140
e 62 142
e 62 143
e 62 144
e 63 68
e 63 69
e 63 84
e 63 108
e 63 116
e 63 121
e 63 138
e 64 77
e 64 79
e 64 99
e 64 112
e 64 113
e 64 132
e 64 134
e 64 135
e 64 140
e 64 143
e 64 144
e 64 145
e 65 68
e 65 70
e 65 72
e 65 76
e 65 81
e 65 83
e 65 85
e 65 86
e 65 88
e 65 91
e 65 99
e 65 102
e 65 108
e 65 112
e 65 123
e 65 126
e 65 130
e 65 135
e 65 140
e 65 145
e 66 69
e 66 70
e 66 82
e 66 83
e 66 84
e 66 90
e 66 94
e 66 101
e 66 102
e 66 105
e 66 108
e 66 114
e 66 122
e 66 129
e 66 132
e 66 138
e 66 142
e 66 144
e 67 70
e 67 73
e 67 85
e 67 88
e 67 99
e 67 102
e 67 104
e 67 124
e 67 125
e 67 127
e 67 128
e 67 134
e 67 135
e 67 137
e 67 142
e 67 143
e 67 144
e 67 150
e 68 72
e 68 75
e 68 87
e 68 88
e 68 91
e 68 92
e 68 94
e 68 96
e 68 100
e 68 101
e 68 103
e 68 104
e 68 107
e 68 122
e 68 128
e 68 129
e 68 139
e 68 144
e 68 145
e 68 149
e 69 70
e 69 81
e 69 90
e 69 96
e 69 113
e 69 118
e 69 120
e 69 124
e 69 127
e 69 130
e 69 136
e 69 142
e 69 146
e 70 74
e 70 79
e 70 82
e 70 84
e 70 90
e 70 92
e 70 105
e 70 108
e 70 109
e 70 110
e 70 115
e 70 123
e 70 133
e 70 145
e 70 147
e 71 74
e 71 76
e 71 79
e 71 83
e 71 90
e 71 102
e 71 111
e 71 117
e 71 120
e 71 122
e 71 130
e 71 133
e 71 135
e 71 138
e 72 73
e 72 77
e 72 80
e 72 84
e 72 87
e 72 94
e 72 96
e 72 104
e 72 107
e 72 109
e 72 116
e 72 126
e 72 129
e 72 132
e 72 139
e 73 77
e 73 89
e 73 95
e 73 98
e 73 102
e 73 105
e 73 108
e 73 114
e 73 122
e 73 123
e 73 125
e 73 132
e 73 136
e 73 138
e 73 148
e 73 150
e 74 76
e 74 78
e 74 89
e 74 91
e 74 101
e 74 103
e 74 108
e 74 113
e 74 114
e 74 116
e 74 118
e 74 122
e 74 145
e 74 150
e 75 87
e 75 95
e 75 97
e 75 105
e 75 111
e 75 128
e 75 133
e 75 134
e 75 135
e 75 139
e 75 145
e 76 77
e 76 78
e 76 84
e 76 90
e 76 101
e 76 104
e 76 107
e 76 108
e 76 111
e 76 112
e 76 113
e 76 117
e 76 121
e 76 125
e 76 127
e 76 138
e 76 139
e 76 144
e 77 80
e 77 88
e 77 98
e 77 113
e 77 118
e 77 121
e 77 132
e 77 136
e 77 137
e 77 140
e 77 141
e 77 143
e 77 144
e 77 147
e 77 149
e 78 81
e 78 83
e 78 85
e 78 86
e 78 91
e 78 92
e 78 95
e 78 96
e 78 100
e 78 103
e 78 104
e 78 108
e 78 129
e 78 134
e 78 136
e 78 139
e 78 142
e 78 146
e 79 91
e 79 95
e 79 98
e 79 107
e 79 109
e 79 113
e 79 118
e 79 119
e 79 122
e 79 130
e 79 138
e 80 85
e 80 88
e 80 90
e 80 95
e 80 97
e 80 101
e 80 104
e 80 105
e 80 109
e 80 120
e 80 129
e 80 131
e 80 135
e 80 136
e 80 141
e 80 145
e 80 149
e 81 84
e 81 85
e 81 87
e 81 91
e 81 92
e 81 97
e 81 98
e 81 112
e 81 114
e 81 123
e 81 125
e 81 126
e 81 131
e 81 132
e 81 135
e 81 143
e 81 147
e 82 85
e 82 90
e 82 92
e 82 101
e 82 103
e 82 107
e 82 109
e 82 117
e 82 125
e 82 127
e 82 128
e 82 142
e 82 145
e 83 94
e 83 96
e 83 100
e 83 105
e 83 106
e 83 112
e 83 113
e 83 119
e 83 122
e 83 133
e 83 138
e 83 139
e 83 143
e 83 146
e 83 148
e 84 85
e 84 87
e 84 89
e 84 91
e 84 92
e 84 95
e 84 101
e 84 106
e 84 109
e 84 115
e 84 119
e 84 125
e 84 126
e 84 128
e 84 132
e 84 135
e 84 136
e 84 141
e 84 150
e 85 94
e 85 101
e 85 108
e 85 109
e 85 114
e 85 116
e 85 118
e 85 120
e 85 128
e 85 133
e 85 137
e 85 144
e 85 146
e 85 147
e 86 97
e 86 104
e 86 116
e 86 119
e 86 124
e 86 130
e 86 133
e 86 134
e 86 136
e 86 144
e 86 149
e 87 88
e 87 89
e 87 90
e 87 96
e 87 97
e 87 112
e 87 114
e 87 119
e 87 123
e 87 124
e 87 126
e 87 136
e 88 102
e 88 104
e 88 110
e 88 115
e 88 119
e 88 120
e 88 127
e 88 142
e 88 144
e 88 145
e 88 146
e 88 148
e 89 92
e 89 94
e 89 95
e 89 104
e 89 107
e 89 109
e 89 114
e 89 116
e 89 118
e 89 119
e 89 128
e 89 132
e 89 136
e 89 142
e 89 143
e 90 96
e 90 119
e 90 126
e 90 127
e 90 129
e 90 143
e 90 150
e 91 94
e 91 102
e 91 107
e 91 108
e 91 110
e 91 111
e 91 114
e 91 115
e 91 118
e 91 123
e 91 124
e 91 129
e 91 146
e 92 96
e 92 97
e 92 100
e 92 101
e 92 108
e 92 121
e 92 123
e 92 124
e 92 125
e 92 126
e 92 127
e 92 145
e 93 99
e 93 112
e 93 115
e 93 119
e 93 126
e 93 128
e 93 132
e 93 141
e 93 144
e 93 148
e 94 98
e 94 115
e 94 117
e 94 136
e 94 142
e 94 148
e 94 150
e 95 100
e 95 104
e 95 105
e 95 115
e 95 120
e 95 138
e 95 143
e 95 149
e 96 100
e 96 103
e 96 115
e 96 118
e 96 127
e 96 129
e 96 130
e 96 134
e 96 139
e 97 100
e 97 105
e 97 110
e 97 111
e 97 115
e 97 116
e 97 118
e 97 125
e 97 135
e 97 137
e 97 150
e 98 100
e 98 108
e 98 109
e 98 117
e 98 118
e 98 120
e 98 124
e 98 129
e 98 130
e 98 133
e 98 134
e 98 135
e 98 144
e 99 110
e 99 129
e 99 134
e 99 139
e 99 143
e 100 110
e 100 116
e 100 129
e 100 136
e 100 138
e 100 141
e 100 145
e 101 108
e 101 110
e 101 113
e 101 126
e 101 128
e 101 130
e 101 135
e 101 142
e 101 145
e 102 103
e 102 114
e 102 121
e 102 122
e 102 131
e 102 132
e 102 134
e 102 136
e 102 146
e 103 110
e 103 112
e 103 113
e 103 121
e 103 129
e 103 130
e 103 146
e 104 113
e 104 131
e 104 133
e 104 139
e 104 141
e 104 146
e 104 147
e 104 149
e 105 113
e 105 117
e 105 119
e 105 122
e 105 130
e 105 133
e 105 136
e 105 138
e 105 145
e 105 150
e 106 107
e 106 109
e 106 111
e 106 112
e 106 114
e 106 116
e 106 119
e 106 130
e 106 131
e 106 136
e 106 140
e 106 148
e 107 108
e 107 114
e 107 116
e 107 120
e 107 125
e 107 126
e 107 127
e 107 129
e 107 132
e 107 135
e 107 140
e 107 148
e 108 119
e 108 120
e 108 121
e 108 139
e 108 141
e 108 147
e 109 110
e 109 112
e 109 116
e 109 128
e 109 130
e 109 149
e 110 116
e 110 117
e 110 122
e 110 128
e 110 136
e 110 137
e 110 139
e 110 145
e 110 148
e 111 118
e 111 121
e 111 133
e 111 141
e 111 144
e 112 118
e 112 126
e 112 137
e 112 140
e 113 118
e 113 130
e 113 131
e 113 135
e 113 139
e 113 142
e 113 145
e 114 119
e 114 128
e 114 134
e 114 136
e 114 142
e 114 144
e 115 118
e 115 120
e 115 126
e 115 146
e 115 148
e 116 124
e 116 130
e 116 131
e 116 138
e 116 139
e 116 146
e 116 149
e 117 121
e 117 130
e 117 132
e 117 139
e 117 141
e 117 145
e 117 149
e 118 124
e 118 128
e 118 131
e 118 145
e 118 148
e 119 128
e 119 135
e 119 136
e 119 147
e 120 130
e 120 132
e 120 137
e 120 141
e 120 142
e 120 150
e 121 124
e 121 127
e 121 128
e 121 145
e 122 127
e 122 133
e 122 136
e 122 142
e 122 146
e 122 147
e 123 124
e 123 128
e 123 133
e 123 137
e 123 138
e 123 143
e 123 147
e 124 126
e 124 130
e 124 131
e 124 132
e 124 133
e 124 134
e 124 135
e 124 140
e 125 127
e 125 128
e 125 129
e 125 134
e 125 135
e 125 136
e 125 140
e 125 141
e 125 149
e 126 130
e 126 131
e 126 137
e 126 143
e 127 130
e 127 131
e 128 131
e 128 134
e 128 135
e 128 137
e 128 142
e 128 146
e 129 131
e 129 132
e 129 138
e 129 141
e 129 143
e 129 146
e 129 147
e 130 135
e 130 136
e 130 141
e 130 142
e 131 137
e 131 143
e 131 148
e 131 150
e 132 134
e 132 136
e 132 141
e 132 142
e 132 144
e 132 145
e 133 139
e 133 141
e 133 144
e 135 138
e 135 139
e 135 143
e 135 144
e 135 145
e 136 142
e 136 145
e 137 141
e 137 142
e 137 145
e 138 143
e 139 141
e 139 142
e 139 143
e 141 143
e 142 143
e 143 144
e 143 147
e 144 145
e 145 147
e 146 150
e 148 150
